webassembly/ejemplos_dzn/folder4_json_35.dzn
TERM = { '.', 's(2)', 'in_1', 'in_2', 's(1)', 's(0)', 's(3)', 'in_0'};
null = '.';
s = 4;
n = 8;
ndeps = 2;
max_registers_sz = 3;
NR = 0;
registers = [| |];
dependencies = [|'call[function_index(0)]_0', 'i32.load8_s_1', |'call[function_index(0)]_0', 'i32.load8_s_3'|];
GET_ENUM = { GET1, GET2, GET3};
SET_ENUM = { SET1, SET2, SET3};
TEE_ENUM = { TEE1, TEE2, TEE3};
N = 4;
OP = { 'call[function_index(0)]_0', 'i32.load8_s_1', 'i32.sub_0', 'i32.load8_s_3' };
in_ops = [2, 1, 2, 1 ];
out_ops = [1, 1, 1, 1 ];
in1 = ['in_0', 's(0)', 's(1)', 's(2)' ];
in2 = ['in_1', '.', 'in_2', '.' ];
in3 = ['.', '.', '.', '.' ];
out1 = ['s(0)', 's(1)', 's(2)', 's(3)' ];
out2 = ['.', '.', '.', '.' ];
out3 = ['.', '.', '.', '.' ];
comm = [false, false, false, false ];
gas = [1, 1, 1, 1 ];
sz = [1, 1, 1, 1 ];
stor = [true, false, false, false ];
lb = [ 1, 1, 1, 1 ];
ub = [ 4, 4, 4, 4 ];
startstack = [ 'in_0', 'in_1', 'in_2', null, null, null, null, null ];
endstack = [ 's(3)', null, null, null, null, null, null, null ];
