webassembly/ejemplos_results/4/folder4_json_35.txt
value = 4;
fgas = [1, 1, 1, 1];
fsize = [1, 1, 1, 1];
states = 
[|   in_0, in_1, in_2, '.', '.', '.', '.', '.'
 | 's(0)', in_2,  '.', '.', '.', '.', '.', '.'
 | 's(1)', in_2,  '.', '.', '.', '.', '.', '.'
 | 's(2)',  '.',  '.', '.', '.', '.', '.', '.'
 | 's(3)',  '.',  '.', '.', '.', '.', '.', '.'
 |];
register_states = 
[| '.', '.', '.'
 | '.', '.', '.'
 | '.', '.', '.'
 | '.', '.', '.'
 | '.', '.', '.'
 |];
program = [O('call[function_index(0)]_0'), O('i32.load8_s_1'), O('i32.sub_0'), O('i32.load8_s_3')];
% time elapsed: 0.06 s
----------
==========
% time elapsed: 0.06 s
% [value > 3]
